(set-info :origin "driver benchmark extracted from Microsoft SDV")
(set-logic HORN)
(declare-fun Proc41 (Int Int Int Int Bool Int) Bool)
(declare-fun Proc12 (Int Int Int Int Bool Int Int Int Int) Bool)
(declare-fun Proc40 (Int Int Int Int Bool Int) Bool)
(declare-fun Proc22 (Int Int Int Int Bool Int Int) Bool)
(declare-fun Proc0 (Int Int Int Int Bool Int Int Int) Bool)
(declare-fun Proc5 (Int Int Int Int Bool Int Int) Bool)
(declare-fun Proc20 (Int Int Int Int Bool Int Int) Bool)
(declare-fun Proc15 (Int Int Int Int Bool Int Int) Bool)
(declare-fun Proc30 (Int Int Int Int Bool Int) Bool)
(declare-fun Proc9 (Int Int Int Int Bool Int) Bool)
(declare-fun Proc14 (Int Int Int Int Bool Int) Bool)
(declare-fun Proc28 (Int Int Int Int Bool Int Int Int) Bool)
(declare-fun Proc19 (Int Int Int Int Bool Int Int Int Int) Bool)
(declare-fun Proc35 (Int Int Int Int Bool Int) Bool)
(declare-fun Proc3 (Int Int Int Int Bool Int) Bool)
(declare-fun Proc43 (Int Int Int Int Bool Int) Bool)
(declare-fun Proc24 (Int Int Int Int Bool Int Int Int Int) Bool)
(declare-fun Proc27 (Int Int Int Int Bool Int) Bool)
(declare-fun Proc26 (Int Int Int Int Bool Int Int Int Int) Bool)
(declare-fun Proc17 (Int Int Int Int Bool Int) Bool)
(declare-fun Proc21 (Int Int Int Int Bool Int) Bool)
(declare-fun Proc23 (Int Int Int Int Bool Int Int Int Int) Bool)
(declare-fun Proc25 (Int Int Int Int Bool Int Int Int Int) Bool)
(declare-fun Proc33 (Int Int Int Int Bool Int) Bool)
(declare-fun Proc1 (Int Int Int Int Bool Int Int Int Int Int) Bool)
(declare-fun Proc16 (Int Int Int Int Bool) Bool)
(declare-fun Proc37 (Int Int Int Int Bool Int) Bool)
(declare-fun Proc18 (Int Int Int Int Bool Int Int Int Int) Bool)
(declare-fun Proc42 (Int Int Int Int Bool Int) Bool)
(declare-fun Proc36 (Int Int Int Int Bool Int) Bool)
(declare-fun Proc45 (Int Int Int Int Bool Int Int) Bool)
(declare-fun Proc13 (Int Int Int Int Bool) Bool)
(declare-fun Proc11 (Int Int Int Int Bool Int Int) Bool)
(declare-fun Proc38 (Int Int Int Int Bool Int) Bool)
(declare-fun Proc7 (Int Int Int Int Bool Int Int) Bool)
(declare-fun Proc48 (Int Int Int Int Bool Int Bool Int Int Int Int) Bool)
(declare-fun Proc44 (Int Int Int Int Bool) Bool)
(declare-fun Proc31 (Int Int Int Int Bool Int) Bool)
(declare-fun Proc29 (Int Int Int Int Bool Int Int Int Int Bool Int) Bool)
(declare-fun Proc2 (Int Int Int Int Bool Int Int) Bool)
(declare-fun Proc10 (Int Int Int Int Bool Int Int) Bool)
(declare-fun Proc34 (Int Int Int Int Bool Int) Bool)
(declare-fun Proc6 (Int Int Int Int Bool Int) Bool)
(declare-fun Proc8 (Int Int Int Int Bool Int Int Int Int) Bool)
(declare-fun Proc47 (Int Int Int Int Bool) Bool)
(declare-fun Proc32 (Int Int Int Int Bool Int) Bool)
(declare-fun Proc46 (Int Int Int Int Bool Int Int Int Int) Bool)
(declare-fun Proc4 (Int Int Int Int Bool Int Int Int) Bool)
(declare-fun Proc39 (Int Int Int Int Bool Int) Bool)
(assert (forall ((A Int)
         (B Int)
         (C Int)
         (D Int)
         (E Int)
         (F Int)
         (G Int)
         (H Int)
         (I Bool))
  (let ((a!1 (and (or (not (= G 1)) (not (= F G)))
                  (or (not (= G 0)) (not (= F G))))))
  (let ((a!2 (and (or (= H 0) (not (= G 1)) (not (= F G)))
                  (or (not (= H 0)) a!1))))
    (=> (not (or (not I) a!2)) (Proc0 E D C B I A H F))))))
(assert (forall ((A Int)
         (B Int)
         (C Int)
         (D Int)
         (E Int)
         (F Int)
         (G Int)
         (H Int)
         (I Bool)
         (J Int)
         (K Int)
         (L Int)
         (M Int)
         (N Int))
  (let ((a!1 (or (not (and (= N M) (= L 0))) (not (and (= K L) (= J N)))))
        (a!2 (and (not (<= G (+ 1 H))) (not (<= G M)))))
  (let ((a!3 (or (not (= H M))
                 (not a!2)
                 (not (and (= N G) (= L H)))
                 (not (and (= K L) (= J N))))))
    (=> (not (or (not I) (and a!1 a!3))) (Proc1 M F E D I C B A K J))))))
(assert (forall ((A Int)
         (B Int)
         (C Int)
         (D Int)
         (E Int)
         (F Int)
         (G Int)
         (H Int)
         (I Bool)
         (J Int))
  (let ((a!1 (not (and (= F (- 1073741823)) (= H F)))))
  (let ((a!2 (and (or (= J 0) (not (= H 0)) (not (= G H)))
                  (or (not (= J 0)) a!1 (not (= G H))))))
    (=> (not (or (not I) a!2)) (Proc2 E D C B I A G))))))
(assert (forall ((A Int) (B Int) (C Int) (D Int) (E Int) (I Bool))
  (=> I (Proc3 E D C B I A))))
(assert (forall ((A Int) (B Int) (C Int) (D Int) (E Int) (F Int) (G Int) (I Bool))
  (let ((a!1 (not (or (not I) (= G 0) (not (= F 259))))))
    (=> a!1 (Proc4 E D C B I A G F)))))
(assert (forall ((A Int) (B Int) (C Int) (D Int) (E Int) (F Int) (I Bool))
  (=> I (Proc5 F E D C I B A))))
(assert (forall ((A Int) (B Int) (C Int) (D Int) (E Int) (I Bool))
  (=> I (Proc6 E D C B I A))))
(assert (forall ((A Int)
         (B Int)
         (C Int)
         (D Int)
         (E Int)
         (F Int)
         (G Int)
         (H Int)
         (I Bool)
         (J Int)
         (K Int)
         (L Int))
  (let ((a!1 (and (not (<= J (+ 1 L))) (not (<= J K)))))
  (let ((a!2 (or (not I)
                 (not (= L K))
                 (not a!1)
                 (not (Proc7 J H G F I L E))
                 (not (and (= D J) (= C E))))))
    (=> (not a!2) (Proc8 K H G F I B A D C))))))
(assert (forall ((A Int) (B Int) (C Int) (D Int) (E Int) (F Int) (I Bool))
  (let ((a!1 (not (or (not I) (not (= F 1))))))
    (=> a!1 (Proc7 E D C B I A F)))))
(assert (forall ((A Int) (B Int) (C Int) (D Int) (E Int) (I Bool))
  (=> false (Proc9 E D C B I A))))
(assert (forall ((A Int)
         (B Int)
         (C Int)
         (D Int)
         (E Int)
         (F Int)
         (G Int)
         (H Int)
         (I Bool))
  (let ((a!1 (and (not (<= F (+ 1 H))) (not (<= F G)))))
  (let ((a!2 (not (or (not I)
                      (not (= H G))
                      (not a!1)
                      (not (Proc9 F E D C I H))
                      (not (= B F))))))
    (=> a!2 (Proc10 G E D C I A B))))))
(assert (forall ((A Int)
         (B Int)
         (C Int)
         (D Int)
         (E Int)
         (F Int)
         (G Int)
         (H Int)
         (I Bool))
  (let ((a!1 (and (not (<= F (+ 1 H))) (not (<= F G)))))
  (let ((a!2 (not (or (not I)
                      (not (= H G))
                      (not a!1)
                      (not (Proc9 F E D C I H))
                      (not (= B F))))))
    (=> a!2 (Proc11 G E D C I A B))))))
(assert (forall ((A Int)
         (B Int)
         (C Int)
         (D Int)
         (E Int)
         (F Int)
         (G Int)
         (H Int)
         (I Bool)
         (J Int)
         (K Int)
         (L Int)
         (M Int)
         (N Int)
         (O Int))
  (let ((a!1 (or (not (= G 1))
                 (not (and (= F H) (= E G)))
                 (not (and (= D F) (= C E)))))
        (a!2 (or (= G 1)
                 (not (and (= F H) (= E G)))
                 (not (and (= D F) (= C E)))))
        (a!3 (and (not (<= A (+ 1 B))) (not (<= A N)))))
  (let ((a!4 (or (= O 259)
                 (not (= B N))
                 (not a!3)
                 (not (Proc9 A M L K I B))
                 (not (and (= F A) (= E K)))
                 (not (and (= D F) (= C E))))))
  (let ((a!5 (and (or (not (= O 259))
                      (not (Proc8 N M L K I J O H G))
                      (and a!1 a!2))
                  a!4)))
    (=> (not (or (not I) a!5)) (Proc12 N M L K I J O D C)))))))
(assert (forall ((A Int) (B Int) (C Int) (D Int) (I Bool)) (=> I (Proc13 D C B A I))))
(assert (forall ((A Int) (B Int) (C Int) (D Int) (E Int) (F Int) (I Bool))
  (let ((a!1 (not (or (not I) (not (= F E))))))
    (=> a!1 (Proc14 D C B A I F)))))
(assert (forall ((A Int) (B Int) (C Int) (D Int) (E Int) (F Int) (G Int) (I Bool))
  (let ((a!1 (or (not I) (not (and (= G F) (= E 0))))))
    (=> (not a!1) (Proc15 D C B A I G E)))))
(assert (forall ((A Int)
         (B Int)
         (C Int)
         (D Int)
         (E Int)
         (F Int)
         (G Int)
         (H Int)
         (I Bool)
         (J Int)
         (K Int)
         (L Int)
         (M Int)
         (N Int)
         (O Int)
         (P Int)
         (Q Int))
  (let ((a!1 (not (and (not (= K 0)) (Proc18 P O N M I J L H G))))
        (a!2 (not (and (not (= L O)) (= F G))))
        (a!4 (and (not (<= B (+ 1 C))) (not (<= B G)))))
  (let ((a!3 (or a!2 (not (and (= E H) (= D F)))))
        (a!5 (or (not (= L O))
                 (not (= C G))
                 (not a!4)
                 (not (and (Proc11 B O N M I C A) (= F A)))
                 (not (and (= E H) (= D F))))))
  (let ((a!6 (not (or (not I)
                      (= Q 0)
                      (not (Proc16 P O N M I))
                      (not (Proc17 P O N M I L))
                      (= K 0)
                      a!1
                      (and a!3 a!5)))))
    (=> a!6 (Proc19 P O N M I Q L E D)))))))
(assert (forall ((A Int)
         (B Int)
         (C Int)
         (D Int)
         (E Int)
         (F Int)
         (G Int)
         (H Int)
         (I Bool)
         (J Int)
         (K Int)
         (L Int)
         (M Int)
         (N Int)
         (O Int)
         (P Int)
         (Q Int)
         (R Int)
         (S Int)
         (T Int)
         (U Int)
         (V Int)
         (W Int)
         (X Int)
         (Y Int)
         (Z Int)
         (A1 Int)
         (B1 Int)
         (C1 Int)
         (D1 Int)
         (E1 Int)
         (F1 Int)
         (G1 Int)
         (H1 Int)
         (I1 Int)
         (J1 Int)
         (K1 Int)
         (L1 Int)
         (M1 Int)
         (N1 Int)
         (O1 Int))
  (let ((a!1 (and (= O1 N1) (not (<= M1 (+ 4 O1)))))
        (a!2 (and (not (<= M1 N1))
                  (= L1 M1)
                  (not (<= K1 (+ 4 L1)))
                  (not (<= K1 M1))
                  (= J1 K1)
                  (not (<= I1 (+ 8 J1)))
                  (not (<= I1 K1))
                  (= H1 I1)
                  (not (<= G1 (+ 8 H1)))
                  (not (<= G1 I1))
                  (= F1 G1)
                  (not (<= E1 (+ 12 F1)))
                  (not (<= E1 G1))
                  (= D1 E1)
                  (not (<= C1 (+ 4 D1)))
                  (not (<= C1 E1))))
        (a!3 (and (not (<= A1 (+ 1 B1))) (not (<= A1 C1))))
        (a!4 (and (not (<= Y (+ 1 Z))) (not (<= Y A1))))
        (a!5 (not (and (not (= R 0)) (not (= S 0)))))
        (a!6 (not (and (not (= R 0)) (Proc18 P X W V I O T N M))))
        (a!7 (not (and (not (= T X)) (= L M))))
        (a!9 (and (not (<= C (+ 1 D))) (not (<= C M))))
        (a!11 (or (not (= A (- 1073741789)))
                  (= T 0)
                  (not (Proc22 Y X W V I T 0))
                  (not (and (= K Y) (= J A)))
                  (not (and (= H J) (= G K)))
                  (not (and (= F H) (= E G))))))
  (let ((a!8 (or a!7
                 (not (and (= K L) (= J N)))
                 (not (and (= H J) (= G K)))
                 (not (and (= F H) (= E G)))))
        (a!10 (or (not (= T X))
                  (not (= D M))
                  (not a!9)
                  (not (and (Proc11 C X W V I D B) (= L B)))
                  (not (and (= K L) (= J N)))
                  (not (and (= H J) (= G K)))
                  (not (and (= F H) (= E G))))))
  (let ((a!12 (and (or (not (Proc21 Y X W V I D1))
                       (not (Proc5 Y X W V I D1 F1))
                       (not (<= 3 Q))
                       (not (Proc17 P X W V I T))
                       (= R 0)
                       a!6
                       (and a!8 a!10))
                   a!11)))
  (let ((a!13 (not (or (not I)
                       (not a!1)
                       (not a!2)
                       (not (= B1 C1))
                       (not a!3)
                       (not (= Z A1))
                       (not a!4)
                       (not (Proc16 Y X W V I))
                       (= U 0)
                       (not (Proc20 Y X W V I T S))
                       a!5
                       a!12))))
    (=> a!13 (Proc23 N1 X W V I U T F E))))))))
(assert (forall ((A Int)
         (B Int)
         (C Int)
         (D Int)
         (E Int)
         (F Int)
         (G Int)
         (H Int)
         (I Bool)
         (J Int)
         (K Int)
         (L Int)
         (M Int)
         (N Int)
         (O Int)
         (P Int)
         (Q Int))
  (let ((a!1 (not (and (not (= K 0)) (Proc18 P O N M I J L H G))))
        (a!2 (not (and (not (= L O)) (= F G))))
        (a!4 (and (not (<= B (+ 1 C))) (not (<= B G)))))
  (let ((a!3 (or a!2 (not (and (= E H) (= D F)))))
        (a!5 (or (not (= L O))
                 (not (= C G))
                 (not a!4)
                 (not (and (Proc11 B O N M I C A) (= F A)))
                 (not (and (= E H) (= D F))))))
  (let ((a!6 (not (or (not I)
                      (= Q 0)
                      (not (Proc16 P O N M I))
                      (not (Proc17 P O N M I L))
                      (= K 0)
                      a!1
                      (and a!3 a!5)))))
    (=> a!6 (Proc24 P O N M I Q L E D)))))))
(assert (forall ((A Int)
         (B Int)
         (C Int)
         (D Int)
         (E Int)
         (F Int)
         (G Int)
         (H Int)
         (I Bool)
         (J Int))
  (let ((a!1 (not (and (not (= H 0)) (not (= G 0))))))
  (let ((a!2 (not (or (not I)
                      (= J 0)
                      a!1
                      (not (Proc6 F E D C I B))
                      (not (= A 0))))))
    (=> a!2 (Proc25 F E D C I J G B A))))))
(assert (forall ((A Int)
         (B Int)
         (C Int)
         (D Int)
         (E Int)
         (F Int)
         (G Int)
         (H Int)
         (I Bool)
         (J Int))
  (let ((a!1 (not (and (not (= H 0)) (not (= G 0))))))
  (let ((a!2 (not (or (not I) (= J 0) a!1 (not (= F 0))))))
    (=> a!2 (Proc26 E D C B I J G A F))))))
(assert (forall ((A Int)
         (B Int)
         (C Int)
         (D Int)
         (E Int)
         (F Int)
         (G Int)
         (H Int)
         (I Bool)
         (J Int)
         (K Int)
         (L Int)
         (M Int)
         (N Int)
         (O Int)
         (P Int)
         (Q Int)
         (R Int)
         (S Int)
         (T Int)
         (P1 Bool)
         (Q1 Bool)
         (R1 Bool))
  (let ((a!1 (not (and (not (<= T 0)) (Proc27 T S R Q R1 P))))
        (a!2 (not (and (= F H) (= E L) (= D J) (= C M) (= P1 Q1) (= B K)))))
  (let ((a!3 (or (= J 0) (not (and (= H G) (not Q1))) a!2))
        (a!4 (or (not (and (= J 0) (= I R1))) (not (and (= H A) (= Q1 I))) a!2)))
  (let ((a!5 (and (or (= J 1) (and a!3 a!4)) (or (not (= J 1)) (and a!3 a!4)))))
  (let ((a!6 (not (or (not R1)
                      a!1
                      (not (Proc15 P S R Q R1 O N))
                      (not (Proc14 P O R N R1 M))
                      (not (Proc13 P O M N R1))
                      (= M 0)
                      (not (Proc28 P O M N R1 L K J))
                      a!5))))
    (=> a!6 (Proc29 T S R Q R1 F E D C P1 B))))))))
(assert (forall ((A Int) (B Int) (C Int) (D Int) (E Int) (I Bool))
  (let ((a!1 (not (or (not I) (not (= E 1))))))
    (=> a!1 (Proc30 D C B A I E)))))
(assert (forall ((A Int) (B Int) (C Int) (D Int) (E Int) (I Bool))
  (let ((a!1 (not (or (not I) (not (= E 0))))))
    (=> a!1 (Proc31 D C B A I E)))))
(assert (forall ((A Int) (B Int) (C Int) (D Int) (E Int) (I Bool))
  (let ((a!1 (not (or (not I) (not (= E 1))))))
    (=> a!1 (Proc32 D C B A I E)))))
(assert (forall ((A Int) (B Int) (C Int) (D Int) (E Int) (I Bool))
  (let ((a!1 (not (or (not I) (not (= E 0))))))
    (=> a!1 (Proc33 D C B A I E)))))
(assert (forall ((A Int) (B Int) (C Int) (D Int) (E Int) (I Bool))
  (let ((a!1 (not (or (not I) (not (= E 1))))))
    (=> a!1 (Proc34 D C B A I E)))))
(assert (forall ((A Int) (B Int) (C Int) (D Int) (E Int) (I Bool))
  (let ((a!1 (not (or (not I) (not (= E 1))))))
    (=> a!1 (Proc35 D C B A I E)))))
(assert (forall ((A Int) (B Int) (C Int) (D Int) (E Int) (I Bool))
  (let ((a!1 (not (or (not I) (not (= E 1))))))
    (=> a!1 (Proc36 D C B A I E)))))
(assert (forall ((A Int) (B Int) (C Int) (D Int) (E Int) (I Bool))
  (let ((a!1 (not (or (not I) (not (= E 1))))))
    (=> a!1 (Proc37 D C B A I E)))))
(assert (forall ((A Int) (B Int) (C Int) (D Int) (E Int) (I Bool))
  (let ((a!1 (not (or (not I) (not (= E 1))))))
    (=> a!1 (Proc38 D C B A I E)))))
(assert (forall ((A Int) (B Int) (C Int) (D Int) (E Int) (I Bool))
  (let ((a!1 (not (or (not I) (not (= E 0))))))
    (=> a!1 (Proc39 D C B A I E)))))
(assert (forall ((A Int) (B Int) (C Int) (D Int) (E Int) (I Bool))
  (let ((a!1 (not (or (not I) (not (= E 0))))))
    (=> a!1 (Proc40 D C B A I E)))))
(assert (forall ((A Int) (B Int) (C Int) (D Int) (E Int) (F Int) (I Bool))
  (let ((a!1 (or (not I) (not (= F (- 1073741823))) (not (= E F)))))
    (=> (not a!1) (Proc41 D C B A I E)))))
(assert (forall ((A Int)
         (B Int)
         (C Int)
         (D Int)
         (E Int)
         (F Int)
         (G Int)
         (H Int)
         (I Bool)
         (J Int)
         (K Int)
         (L Int)
         (M Int)
         (N Int))
  (let ((a!1 (not (and (not (= H M)) (= F N))))
        (a!3 (and (not (<= B (+ 1 C))) (not (<= B N)))))
  (let ((a!2 (or a!1 (not (and (= E G) (= D F)))))
        (a!4 (or (not (= H M))
                 (not (= C N))
                 (not a!3)
                 (not (and (Proc10 B M L K I C A) (= F A)))
                 (not (and (= E G) (= D F))))))
  (let ((a!5 (not (or (not I) (not (Proc4 N M L K I J H G)) (and a!2 a!4)))))
    (=> a!5 (Proc18 N M L K I J H E D)))))))
(assert (forall ((A Int) (B Int) (C Int) (D Int) (E Int) (F Int) (I Bool))
  (=> I (Proc22 F E D C I B A))))
(assert (forall ((A Int) (B Int) (C Int) (D Int) (E Int) (I Bool))
  (let ((a!1 (not (or (not I) (not (= E 1))))))
    (=> a!1 (Proc42 D C B A I E)))))
(assert (forall ((A Int) (B Int) (C Int) (D Int) (E Int) (I Bool))
  (=> I (Proc17 E D C B I A))))
(assert (forall ((A Int) (B Int) (C Int) (D Int) (E Int) (F Int) (G Int) (I Bool))
  (let ((a!1 (not (or (not I) (= G 0) (not (= F E))))))
    (=> a!1 (Proc20 D C B A I G F)))))
(assert (forall ((A Int) (B Int) (C Int) (D Int) (E Int) (I Bool))
  (=> (not (or (not I) (= E 0))) (Proc21 D C B A I E))))
(assert (forall ((A Int)
         (B Int)
         (C Int)
         (D Int)
         (E Int)
         (F Int)
         (G Int)
         (H Int)
         (I Bool)
         (J Int)
         (K Int)
         (L Int)
         (M Int)
         (N Int)
         (O Int)
         (P Int)
         (Q Int)
         (R Int)
         (S Int)
         (T Int)
         (U Int)
         (V Int)
         (W Int)
         (X Int)
         (Y Int)
         (Z Int)
         (A1 Int)
         (B1 Int)
         (C1 Int)
         (D1 Int))
  (let ((a!1 (or (= Y 0)
                 (not (Proc19 C1 B1 A1 Z I X D1 W V))
                 (not (and (= U V) (= T W)))
                 (not (Proc45 U B1 A1 Z I T D1))
                 (= D1 0)
                 (not (and (= S T) (= R U)))))
        (a!2 (or (= Y 0)
                 (not (Proc41 C1 B1 A1 Z I Q))
                 (not (and (= U C1) (= T Q)))
                 (not (Proc45 U B1 A1 Z I T D1))
                 (= D1 0)
                 (not (and (= S T) (= R U)))))
        (a!3 (or (= Y 0)
                 (not (Proc23 C1 B1 A1 Z I X D1 P O))
                 (not (and (= U O) (= T P)))
                 (not (Proc45 U B1 A1 Z I T D1))
                 (= D1 0)
                 (not (and (= S T) (= R U)))))
        (a!4 (or (= Y 0)
                 (not (Proc41 C1 B1 A1 Z I N))
                 (not (and (= U C1) (= T N)))
                 (not (Proc45 U B1 A1 Z I T D1))
                 (= D1 0)
                 (not (and (= S T) (= R U)))))
        (a!5 (or (= Y 0)
                 (not (Proc41 C1 B1 A1 Z I M))
                 (not (and (= U C1) (= T M)))
                 (not (Proc45 U B1 A1 Z I T D1))
                 (= D1 0)
                 (not (and (= S T) (= R U)))))
        (a!6 (or (= Y 0)
                 (not (Proc41 C1 B1 A1 Z I L))
                 (not (and (= U C1) (= T L)))
                 (not (Proc45 U B1 A1 Z I T D1))
                 (= D1 0)
                 (not (and (= S T) (= R U)))))
        (a!7 (or (= Y 0)
                 (not (Proc41 C1 B1 A1 Z I K))
                 (not (and (= U C1) (= T K)))
                 (not (Proc45 U B1 A1 Z I T D1))
                 (= D1 0)
                 (not (and (= S T) (= R U)))))
        (a!8 (or (not (Proc41 C1 B1 A1 Z I J))
                 (not (and (= U C1) (= T J)))
                 (not (Proc45 U B1 A1 Z I T D1))
                 (= D1 0)
                 (not (and (= S T) (= R U)))))
        (a!9 (or (= Y 0)
                 (not (Proc41 C1 B1 A1 Z I H))
                 (not (and (= U C1) (= T H)))
                 (not (Proc45 U B1 A1 Z I T D1))
                 (= D1 0)
                 (not (and (= S T) (= R U)))))
        (a!10 (or (= Y 0)
                  (not (Proc41 C1 B1 A1 Z I G))
                  (not (and (= U C1) (= T G)))
                  (not (Proc45 U B1 A1 Z I T D1))
                  (= D1 0)
                  (not (and (= S T) (= R U)))))
        (a!11 (or (= Y 0)
                  (not (Proc41 C1 B1 A1 Z I F))
                  (not (and (= U C1) (= T F)))
                  (not (Proc45 U B1 A1 Z I T D1))
                  (= D1 0)
                  (not (and (= S T) (= R U)))))
        (a!12 (or (not (Proc41 C1 B1 A1 Z I E))
                  (not (and (= U C1) (= T E)))
                  (not (Proc45 U B1 A1 Z I T D1))
                  (= D1 0)
                  (not (and (= S T) (= R U)))))
        (a!13 (or (= Y 0)
                  (not (Proc41 C1 B1 A1 Z I D))
                  (not (and (= U C1) (= T D)))
                  (not (Proc45 U B1 A1 Z I T D1))
                  (= D1 0)
                  (not (and (= S T) (= R U)))))
        (a!14 (or (not (Proc41 C1 B1 A1 Z I C))
                  (not (and (= U C1) (= T C)))
                  (not (Proc45 U B1 A1 Z I T D1))
                  (= D1 0)
                  (not (and (= S T) (= R U)))))
        (a!15 (or (= Y 0)
                  (not (Proc24 C1 B1 A1 Z I X D1 B A))
                  (not (and (= U A) (= T B)))
                  (not (Proc45 U B1 A1 Z I T D1))
                  (= D1 0)
                  (not (and (= S T) (= R U))))))
  (let ((a!16 (not (or (not I)
                       (= D1 0)
                       (not (Proc43 C1 B1 A1 Z I D1))
                       (= Y 0)
                       (not (Proc44 C1 B1 A1 Z I))
                       (and a!1
                            a!2
                            a!3
                            a!4
                            a!5
                            a!6
                            a!7
                            a!8
                            a!9
                            a!10
                            a!11
                            a!12
                            a!13
                            a!14
                            a!15)))))
    (=> a!16 (Proc46 C1 B1 A1 Z I X D1 S R))))))
(assert (forall ((A Int) (B Int) (C Int) (D Int) (E Int) (I Bool))
  (=> (not (or (not I) (= E 0))) (Proc43 D C B A I E))))
(assert (forall ((A Int) (B Int) (C Int) (D Int) (I Bool)) (=> I (Proc16 D C B A I))))
(assert (forall ((A Int)
         (B Int)
         (C Int)
         (D Int)
         (E Int)
         (F Int)
         (G Int)
         (H Int)
         (I Bool)
         (J Int)
         (K Int)
         (L Int)
         (M Int)
         (N Int)
         (O Int)
         (P Int)
         (Q Int)
         (R Int)
         (S Int)
         (T Int)
         (U Int)
         (V Int)
         (W Int)
         (X Int)
         (Y Int)
         (Z Int)
         (A1 Int)
         (B1 Int)
         (C1 Int))
  (let ((a!1 (not (and (= L C1) (= K M) (= J N))))
        (a!3 (and (not (<= D (+ 1 E))) (not (<= D F)))))
  (let ((a!2 (or (not (and (= N A1) (= M B1))) a!1))
        (a!4 (or (not (= B 1)) (not (and (= N B) (= M C))) a!1))
        (a!5 (or (= B 1) (not (and (= N B) (= M C))) a!1))
        (a!6 (or (not (= Z 0)) (not (and (= N A1) (= M B1))) a!1)))
  (let ((a!7 (and a!2
                  (or (= Z 0)
                      (not (Proc47 B1 C1 C1 A1 I))
                      (not (Proc46 B1 C1 C1 A1 I H C1 G F))
                      (not (= E F))
                      (not a!3)
                      (not (Proc12 D C1 C1 A1 I E G C B))
                      (and a!4 a!5))
                  a!6)))
  (let ((a!8 (not (or (not I)
                      (= C1 0)
                      (not (Proc32 B1 C1 C1 A1 I Z))
                      (not (Proc39 B1 C1 C1 A1 I Y))
                      (not (Proc33 B1 C1 C1 A1 I X))
                      (not (Proc38 B1 C1 C1 A1 I W))
                      (not (Proc31 B1 C1 C1 A1 I V))
                      (not (Proc35 B1 C1 C1 A1 I U))
                      (not (Proc42 B1 C1 C1 A1 I T))
                      (not (Proc40 B1 C1 C1 A1 I S))
                      (not (Proc30 B1 C1 C1 A1 I R))
                      (not (Proc36 B1 C1 C1 A1 I Q))
                      (not (Proc37 B1 C1 C1 A1 I P))
                      (not (Proc34 B1 C1 C1 A1 I O))
                      a!7))))
    (=> a!8 (Proc28 B1 A C1 A1 I L K J))))))))
(assert (forall ((A Int) (B Int) (C Int) (D Int) (I Bool)) (=> I (Proc44 D C B A I))))
(assert (forall ((A Int) (B Int) (C Int) (D Int) (E Int) (F Int) (I Bool))
  (=> I (Proc45 F E D C I B A))))
(assert (forall ((A Int) (B Int) (C Int) (D Int) (I Bool)) (=> I (Proc47 D C B A I))))
(assert (forall ((A Int)
         (B Int)
         (C Int)
         (D Int)
         (E Int)
         (F Int)
         (G Int)
         (H Int)
         (I Bool)
         (J Int)
         (K Int)
         (L Int)
         (M Int)
         (N Int)
         (O Int)
         (P Int)
         (Q Int)
         (R Int)
         (S Int)
         (T Int)
         (U Int)
         (V Int)
         (W Int)
         (X Int)
         (Y Int)
         (Z Int)
         (A1 Int)
         (B1 Int)
         (C1 Int)
         (D1 Int)
         (E1 Int)
         (F1 Int)
         (G1 Int)
         (H1 Int)
         (I1 Int)
         (J1 Int)
         (K1 Int)
         (L1 Int)
         (M1 Int)
         (N1 Int)
         (O1 Int)
         (S1 Int)
         (T1 Int)
         (U1 Int)
         (V1 Int)
         (W1 Int)
         (X1 Int)
         (Y1 Int)
         (Z1 Int)
         (A2 Int)
         (B2 Int)
         (C2 Int)
         (D2 Int)
         (E2 Int)
         (F2 Int)
         (G2 Int)
         (H2 Int)
         (I2 Int))
  (let ((a!1 (and (= I2 H2) (not (<= G2 (+ 240 I2)))))
        (a!2 (and (not (<= G2 H2))
                  (= F2 G2)
                  (not (<= E2 (+ 4 F2)))
                  (not (<= E2 G2))))
        (a!3 (and (= D2 E2)
                  (not (<= C2 (+ 332 D2)))
                  (not (<= C2 E2))
                  (= B2 C2)
                  (not (<= A2 (+ 4 B2)))
                  (not (<= A2 C2))
                  (= Z1 A2)
                  (not (<= Y1 (+ 536 Z1)))))
        (a!4 (and (not (<= Y1 A2))
                  (= X1 Y1)
                  (not (<= W1 (+ 240 X1)))
                  (not (<= W1 Y1))
                  (= V1 W1)
                  (not (<= U1 (+ 240 V1)))
                  (not (<= U1 W1))
                  (= T1 U1)
                  (not (<= S1 (+ 536 T1)))
                  (not (<= S1 U1))
                  (= O1 S1)
                  (not (<= N1 (+ 240 O1)))
                  (not (<= N1 S1))
                  (= M1 N1)
                  (not (<= L1 (+ 4 M1)))
                  (not (<= L1 N1))
                  (= K1 L1)
                  (not (<= J1 (+ 536 K1)))
                  (not (<= J1 L1))
                  (= I1 J1)
                  (not (<= H1 (+ 332 I1)))
                  (not (<= H1 J1))
                  (= G1 H1)
                  (not (<= F1 (+ 240 G1)))
                  (not (<= F1 H1))
                  (= E1 F1)
                  (not (<= D1 (+ 240 E1)))
                  (not (<= D1 F1))
                  (= C1 D1)
                  (not (<= B1 (+ 332 C1)))
                  (not (<= B1 D1))
                  (= A1 B1)
                  (not (<= Z (+ 4 A1)))
                  (not (<= Z B1))
                  (= Y Z)
                  (not (<= X (+ 536 Y)))
                  (not (<= X Z))
                  (= W X)
                  (not (<= V (+ 240 W)))
                  (not (<= V X))
                  (= U V)
                  (not (<= T (+ 240 U)))
                  (not (<= T V))
                  (= S T)
                  (not (<= R (+ 240 S)))
                  (not (<= R T))
                  (= Q R)
                  (not (<= P (+ 240 Q)))
                  (not (<= P R))
                  (= O P)
                  (not (<= N (+ 240 O)))
                  (not (<= N P))
                  (= M N)
                  (not (<= L (+ 40 M)))
                  (not (<= L N))
                  (= K L)
                  (not (<= J (+ 332 K)))
                  (not (<= J L))
                  (= H J)
                  (not (<= G (+ 4 H)))
                  (not (<= G J))
                  (= F G)
                  (not (<= E (+ 40 F)))
                  (not (<= E G)))))
  (let ((a!5 (not (or (not I)
                      (not a!1)
                      (not a!2)
                      (not a!3)
                      (not a!4)
                      (not (= D E))))))
    (=> a!5 (Proc27 H2 C B A I D))))))
(assert (forall ((A Int)
         (B Int)
         (C Int)
         (D Int)
         (E Int)
         (F Int)
         (G Int)
         (H Int)
         (I Bool)
         (J Int)
         (K Int)
         (L Int)
         (M Int)
         (N Int)
         (O Int)
         (P1 Bool)
         (Q1 Bool))
  (let ((a!1 (or (not Q1)
                 (not (and (Proc29 O N M L true K J H G P1 F) (not P1))))))
    (=> (not a!1) (Proc48 O N M L Q1 E I D C B A)))))
(assert (let ((a!1 (exists ((V0 Int)
                    (V1 Int)
                    (V2 Int)
                    (V3 Int)
                    (V4 Bool)
                    (V5 Int)
                    (V6 Bool)
                    (V7 Int)
                    (V8 Int)
                    (V9 Int)
                    (V10 Int))
             (not (=> (and (Proc48 V0 V1 V2 V3 V4 V5 V6 V7 V8 V9 V10)
                           (not false))
                      false)))))
  (not a!1)))

(check-sat)
